\ Model LP: ACOPF
\ LP format - for model browsing. Use MPS format to capture full model detail.
Minimize
  400 obj_vars[1,0] + 400 obj_vars[1,1] + 400 obj_vars[1,2]
   + 400 obj_vars[1,3] + 100 obj_vars[5,0] + 100 obj_vars[5,1]
   + 100 obj_vars[5,2] + 100 obj_vars[5,3] + 1000 pn_viol_l[1]
   + 1000 pn_viol_l[2] + 1000 pn_viol_l[3] + 1000 pn_viol_l[4]
   + 1000 pn_viol_l[5] + 1000 pn_viol_u[1] + 1000 pn_viol_u[2]
   + 1000 pn_viol_u[3] + 1000 pn_viol_u[4] + 1000 pn_viol_u[5]
   + 5000 qn_viol_l[1] + 5000 qn_viol_l[2] + 5000 qn_viol_l[3]
   + 5000 qn_viol_l[4] + 5000 qn_viol_l[5] + 5000 qn_viol_u[1]
   + 5000 qn_viol_u[2] + 5000 qn_viol_u[3] + 5000 qn_viol_u[4]
   + 5000 qn_viol_u[5] + 6000 vn_viol_l[1] + 6000 vn_viol_l[2]
   + 6000 vn_viol_l[3] + 6000 vn_viol_l[4] + 6000 vn_viol_l[5]
   + 6000 vn_viol_u[1] + 6000 vn_viol_u[2] + 6000 vn_viol_u[3]
   + 6000 vn_viol_u[4] + 6000 vn_viol_u[5] + 10000 ik_viol_u[1,2]
   + 10000 ik_viol_u[1,3] + 10000 ik_viol_u[2,3] + 10000 ik_viol_u[2,4]
   + 10000 ik_viol_u[3,5] + 10000 ik_viol_u[4,5] + 10000 ik_viol_u[2,1]
   + 10000 ik_viol_u[3,1] + 10000 ik_viol_u[3,2] + 10000 ik_viol_u[4,2]
   + 10000 ik_viol_u[5,3] + 10000 ik_viol_u[5,4]
Subject To
 R0: obj_vars[1,0] <= 12.5
 R1: obj_vars[1,1] <= 12.5
 R2: obj_vars[1,2] <= 12.5
 R3: obj_vars[1,3] <= 12.5
 R4: - obj_vars[1,0] - obj_vars[1,1] - obj_vars[1,2] - obj_vars[1,3]
   + p_n[1] = 0
 R5: obj_vars[5,0] <= 12.5
 R6: obj_vars[5,1] <= 12.5
 R7: obj_vars[5,2] <= 12.5
 R8: obj_vars[5,3] <= 12.5
 R9: - obj_vars[5,0] - obj_vars[5,1] - obj_vars[5,2] - obj_vars[5,3]
   + p_n[5] = 0
 R10: 4.123711340206186 v_n_r[1] - 4.123711340206186 v_n_r[2]
   + 9.278350515463918 v_n_j[1] - 9.278350515463918 v_n_j[2] - i_k_r[1,2]
   = 0
 R11: - 9.278350515463918 v_n_r[1] + 9.278350515463918 v_n_r[2]
   + 4.123711340206186 v_n_j[1] - 4.123711340206186 v_n_j[2] - i_k_j[1,2]
   = 0
 R12: - 4.123711340206186 v_n_r[1] + 4.123711340206186 v_n_r[2]
   - 9.278350515463918 v_n_j[1] + 9.278350515463918 v_n_j[2] - i_k_r[2,1]
   = 0
 R13: 9.278350515463918 v_n_r[1] - 9.278350515463918 v_n_r[2]
   - 4.123711340206186 v_n_j[1] + 4.123711340206186 v_n_j[2] - i_k_j[2,1]
   = 0
 R14: 19.23076923076923 v_n_r[1] - 19.23076923076923 v_n_r[3]
   + 3.846153846153845 v_n_j[1] - 3.846153846153845 v_n_j[3] - i_k_r[1,3]
   = 0
 R15: - 3.846153846153845 v_n_r[1] + 3.846153846153845 v_n_r[3]
   + 19.23076923076923 v_n_j[1] - 19.23076923076923 v_n_j[3] - i_k_j[1,3]
   = 0
 R16: - 19.23076923076923 v_n_r[1] + 19.23076923076923 v_n_r[3]
   - 3.846153846153845 v_n_j[1] + 3.846153846153845 v_n_j[3] - i_k_r[3,1]
   = 0
 R17: 3.846153846153845 v_n_r[1] - 3.846153846153845 v_n_r[3]
   - 19.23076923076923 v_n_j[1] + 19.23076923076923 v_n_j[3] - i_k_j[3,1]
   = 0
 R18: 5.384615384615385 v_n_r[2] - 5.384615384615385 v_n_r[3]
   + 6.923076923076922 v_n_j[2] - 6.923076923076922 v_n_j[3] - i_k_r[2,3]
   = 0
 R19: - 6.923076923076922 v_n_r[2] + 6.923076923076922 v_n_r[3]
   + 5.384615384615385 v_n_j[2] - 5.384615384615385 v_n_j[3] - i_k_j[2,3]
   = 0
 R20: - 5.384615384615385 v_n_r[2] + 5.384615384615385 v_n_r[3]
   - 6.923076923076922 v_n_j[2] + 6.923076923076922 v_n_j[3] - i_k_r[3,2]
   = 0
 R21: 6.923076923076922 v_n_r[2] - 6.923076923076922 v_n_r[3]
   - 5.384615384615385 v_n_j[2] + 5.384615384615385 v_n_j[3] - i_k_j[3,2]
   = 0
 R22: 0.4943820224719102 v_n_r[2] - 0.4943820224719102 v_n_r[4]
   + 0.5839887640449438 v_n_j[2] - 0.8089887640449438 v_n_j[4] - i_k_r[2,4]
   = 0
 R23: - 0.5839887640449438 v_n_r[2] + 0.8089887640449438 v_n_r[4]
   + 0.4943820224719102 v_n_j[2] - 0.4943820224719102 v_n_j[4] - i_k_j[2,4]
   = 0
 R24: - 0.4943820224719102 v_n_r[2] + 0.4943820224719102 v_n_r[4]
   - 0.8089887640449438 v_n_j[2] + 0.5839887640449438 v_n_j[4] - i_k_r[4,2]
   = 0
 R25: 0.8089887640449438 v_n_r[2] - 0.5839887640449438 v_n_r[4]
   - 0.4943820224719102 v_n_j[2] + 0.4943820224719102 v_n_j[4] - i_k_j[4,2]
   = 0
 R26: 0.4943820224719102 v_n_r[3] - 0.4943820224719102 v_n_r[5]
   + 0.5839887640449438 v_n_j[3] - 0.8089887640449438 v_n_j[5] - i_k_r[3,5]
   = 0
 R27: - 0.5839887640449438 v_n_r[3] + 0.8089887640449438 v_n_r[5]
   + 0.4943820224719102 v_n_j[3] - 0.4943820224719102 v_n_j[5] - i_k_j[3,5]
   = 0
 R28: - 0.4943820224719102 v_n_r[3] + 0.4943820224719102 v_n_r[5]
   - 0.8089887640449438 v_n_j[3] + 0.5839887640449438 v_n_j[5] - i_k_r[5,3]
   = 0
 R29: 0.8089887640449438 v_n_r[3] - 0.5839887640449438 v_n_r[5]
   - 0.4943820224719102 v_n_j[3] + 0.4943820224719102 v_n_j[5] - i_k_j[5,3]
   = 0
 R30: 4.411764705882352 v_n_r[4] - 4.411764705882352 v_n_r[5]
   + 7.352941176470588 v_n_j[4] - 7.352941176470588 v_n_j[5] - i_k_r[4,5]
   = 0
 R31: - 7.352941176470588 v_n_r[4] + 7.352941176470588 v_n_r[5]
   + 4.411764705882352 v_n_j[4] - 4.411764705882352 v_n_j[5] - i_k_j[4,5]
   = 0
 R32: - 4.411764705882352 v_n_r[4] + 4.411764705882352 v_n_r[5]
   - 7.352941176470588 v_n_j[4] + 7.352941176470588 v_n_j[5] - i_k_r[5,4]
   = 0
 R33: 7.352941176470588 v_n_r[4] - 7.352941176470588 v_n_r[5]
   - 4.411764705882352 v_n_j[4] + 4.411764705882352 v_n_j[5] - i_k_j[5,4]
   = 0
 R34: - i_n_r[1] + i_k_r[1,2] + i_k_r[1,3] = 0
 R35: - i_n_j[1] + i_k_j[1,2] + i_k_j[1,3] = 0
 R36: - i_n_r[2] + i_k_r[2,3] + i_k_r[2,4] + i_k_r[2,1] = 0
 R37: - i_n_j[2] + i_k_j[2,3] + i_k_j[2,4] + i_k_j[2,1] = 0
 R38: - i_n_r[3] + i_k_r[3,5] + i_k_r[3,1] + i_k_r[3,2] = 0
 R39: - i_n_j[3] + i_k_j[3,5] + i_k_j[3,1] + i_k_j[3,2] = 0
 R40: - i_n_r[4] + i_k_r[4,5] + i_k_r[4,2] = 0
 R41: - i_n_j[4] + i_k_j[4,5] + i_k_j[4,2] = 0
 R42: - i_n_r[5] + i_k_r[5,3] + i_k_r[5,4] = 0
 R43: - i_n_j[5] + i_k_j[5,3] + i_k_j[5,4] = 0
 R44: v_n_r[1] >= -1.1
 R45: v_n_r[2] >= -1.1
 R46: v_n_r[3] >= -1.1
 R47: v_n_r[4] >= -1.1
 R48: v_n_r[5] >= -1.1
 R49: v_n_r[1] <= 1.1
 R50: v_n_r[2] <= 1.1
 R51: v_n_r[3] <= 1.1
 R52: v_n_r[4] <= 1.1
 R53: v_n_r[5] <= 1.1
 R54: v_n_j[1] >= -1.1
 R55: v_n_j[2] >= -1.1
 R56: v_n_j[3] >= -1.1
 R57: v_n_j[4] >= -1.1
 R58: v_n_j[5] >= -1.1
 R59: v_n_j[1] <= 1.1
 R60: v_n_j[2] <= 1.1
 R61: v_n_j[3] <= 1.1
 R62: v_n_j[4] <= 1.1
 R63: v_n_j[5] <= 1.1
 R64: i_k_r[1,2] >= -25
 R65: i_k_r[2,1] >= -25
 R66: i_k_r[1,2] <= 25
 R67: i_k_r[2,1] <= 25
 R68: i_k_j[1,2] >= -25
 R69: i_k_j[2,1] >= -25
 R70: i_k_j[1,2] <= 25
 R71: i_k_j[2,1] <= 25
 R72: i_k_r[1,3] >= -25
 R73: i_k_r[3,1] >= -25
 R74: i_k_r[1,3] <= 25
 R75: i_k_r[3,1] <= 25
 R76: i_k_j[1,3] >= -25
 R77: i_k_j[3,1] >= -25
 R78: i_k_j[1,3] <= 25
 R79: i_k_j[3,1] <= 25
 R80: i_k_r[2,3] >= -25
 R81: i_k_r[3,2] >= -25
 R82: i_k_r[2,3] <= 25
 R83: i_k_r[3,2] <= 25
 R84: i_k_j[2,3] >= -25
 R85: i_k_j[3,2] >= -25
 R86: i_k_j[2,3] <= 25
 R87: i_k_j[3,2] <= 25
 R88: i_k_r[2,4] >= -25
 R89: i_k_r[4,2] >= -25
 R90: i_k_r[2,4] <= 25
 R91: i_k_r[4,2] <= 25
 R92: i_k_j[2,4] >= -25
 R93: i_k_j[4,2] >= -25
 R94: i_k_j[2,4] <= 25
 R95: i_k_j[4,2] <= 25
 R96: i_k_r[3,5] >= -25
 R97: i_k_r[5,3] >= -25
 R98: i_k_r[3,5] <= 25
 R99: i_k_r[5,3] <= 25
 R100: i_k_j[3,5] >= -25
 R101: i_k_j[5,3] >= -25
 R102: i_k_j[3,5] <= 25
 R103: i_k_j[5,3] <= 25
 R104: i_k_r[4,5] >= -25
 R105: i_k_r[5,4] >= -25
 R106: i_k_r[4,5] <= 25
 R107: i_k_r[5,4] <= 25
 R108: i_k_j[4,5] >= -25
 R109: i_k_j[5,4] >= -25
 R110: i_k_j[4,5] <= 25
 R111: i_k_j[5,4] <= 25
 R139: p_n[1] - pn_viol_u[1] <= 50
 R140: p_n[2] - pn_viol_u[2] <= 0
 R141: p_n[3] - pn_viol_u[3] <= 0
 R142: p_n[4] - pn_viol_u[4] <= 0
 R143: p_n[5] - pn_viol_u[5] <= 50
 R144: p_n[1] + pn_viol_l[1] >= 0
 R145: p_n[2] + pn_viol_l[2] >= 0
 R146: p_n[3] + pn_viol_l[3] >= 0
 R147: p_n[4] + pn_viol_l[4] >= 0
 R148: p_n[5] + pn_viol_l[5] >= 0
 R149: q_n[1] - qn_viol_u[1] <= 18
 R150: q_n[2] - qn_viol_u[2] <= 0
 R151: q_n[3] - qn_viol_u[3] <= 0
 R152: q_n[4] - qn_viol_u[4] <= 0
 R153: q_n[5] - qn_viol_u[5] <= 18
 R154: q_n[1] + qn_viol_l[1] >= -0.3
 R155: q_n[2] + qn_viol_l[2] >= 0
 R156: q_n[3] + qn_viol_l[3] >= 0
 R157: q_n[4] + qn_viol_l[4] >= 0
 R158: q_n[5] + qn_viol_l[5] >= -0.3
 R159: v_n_sq[1] - vn_viol_u[1] <= 1.21
 R160: v_n_sq[2] - vn_viol_u[2] <= 1.21
 R161: v_n_sq[3] - vn_viol_u[3] <= 1.21
 R162: v_n_sq[4] - vn_viol_u[4] <= 1.21
 R163: v_n_sq[5] - vn_viol_u[5] <= 1.21
 R164: v_n_sq[1] - vn_viol_l[1] >= 0.9025
 R165: v_n_sq[2] - vn_viol_l[2] >= 0.9025
 R166: v_n_sq[3] - vn_viol_l[3] >= 0.9025
 R167: v_n_sq[4] - vn_viol_l[4] >= 0.9025
 R168: v_n_sq[5] - vn_viol_l[5] >= 0.9025
 R169: i_k_sq[1,2] - ik_viol_u[1,2] <= 625
 R170: i_k_sq[2,1] - ik_viol_u[2,1] <= 625
 R171: i_k_sq[1,3] - ik_viol_u[1,3] <= 625
 R172: i_k_sq[3,1] - ik_viol_u[3,1] <= 625
 R173: i_k_sq[2,3] - ik_viol_u[2,3] <= 625
 R174: i_k_sq[3,2] - ik_viol_u[3,2] <= 625
 R175: i_k_sq[2,4] - ik_viol_u[2,4] <= 625
 R176: i_k_sq[4,2] - ik_viol_u[4,2] <= 625
 R177: i_k_sq[3,5] - ik_viol_u[3,5] <= 625
 R178: i_k_sq[5,3] - ik_viol_u[5,3] <= 625
 R179: i_k_sq[4,5] - ik_viol_u[4,5] <= 625
 R180: i_k_sq[5,4] - ik_viol_u[5,4] <= 625
 R707: - 1.923628678485042 v_n_r[1] - 0.6662986879724619 v_n_j[1]
   + v_n_sq[1] = -1.036075308570983
 R708: - 1.842463983862874 v_n_r[2] - 0.4976781037760982 v_n_j[2]
   + v_n_sq[2] = -0.9105892567025068
 R709: - 1.810708833786259 v_n_r[3] - 0.5759846540166417 v_n_j[3]
   + v_n_sq[3] = -0.9026062006035662
 R710: - 1.916052029313502 v_n_r[4] - 0.8944516328082773 v_n_j[4]
   + v_n_sq[4] = -1.117824775617446
 R711: - 1.905425413473472 v_n_r[5] - 1.08446701994358 v_n_j[5] + v_n_sq[5]
   = -1.201678680913965
 R712: p_n[1] - 2.209058899985706 v_n_r[1] - 0.6223846896832965 v_n_j[1]
   - 0.961814339242521 i_n_r[1] - 0.333149343986231 i_n_j[1]
   = -2.332051577312626
 R713: p_n[2] + 1.369848582066735 v_n_r[2] + 0.1529167661614224 v_n_j[2]
   - 0.9212319919314372 i_n_r[2] - 0.2488390518880491 i_n_j[2]
   = 2.600000001011188
 R714: p_n[3] + 1.367771692457844 v_n_r[3] + 0.2141788263019508 v_n_j[3]
   - 0.9053544168931296 i_n_r[3] - 0.2879923270083208 i_n_j[3]
   = 2.60000000165071
 R715: p_n[4] + 0.5970877596544402 v_n_r[4] + 0.1743512776552962 v_n_j[4]
   - 0.9580260146567511 i_n_r[4] - 0.4472258164041387 i_n_j[4]
   = 1.299999999272566
 R716: p_n[5] - 0.7822337255070549 v_n_r[5] - 0.7599603347344311 v_n_j[5]
   - 0.9527127067367359 i_n_r[5] - 0.5422335099717898 i_n_j[5]
   = -1.157319969670974
 R717: q_n[1] + 0.6223846896832965 v_n_r[1] - 2.209058899985706 v_n_j[1]
   - 0.333149343986231 i_n_r[1] + 0.961814339242521 i_n_j[1]
   = -0.1373280042947815
 R718: q_n[2] - 0.1529167661614224 v_n_r[2] + 1.369848582066735 v_n_j[2]
   - 0.2488390518880491 i_n_r[2] + 0.9212319919314372 i_n_j[2]
   = 0.4000000053010738
 R719: q_n[3] - 0.2141788263019508 v_n_r[3] + 1.367771692457844 v_n_j[3]
   - 0.2879923270083208 i_n_r[3] + 0.9053544168931296 i_n_j[3]
   = 0.4000000061295863
 R720: q_n[4] - 0.1743512776552962 v_n_r[4] + 0.5970877596544402 v_n_j[4]
   - 0.4472258164041387 i_n_r[4] + 0.9580260146567511 i_n_j[4]
   = 0.200000001093959
 R721: q_n[5] + 0.7599603347344311 v_n_r[5] - 0.7822337255070549 v_n_j[5]
   - 0.5422335099717898 i_n_r[5] + 0.9527127067367359 i_n_j[5]
   = 0.2998705289173959
 R722: - 1.899220655933965 i_k_r[1,2] + 0.0577318709423231 i_k_j[1,2]
   + i_k_sq[1,2] = -0.9025930172121859
 R723: - 2.518897144037446 i_k_r[1,3] - 1.302501250308916 i_k_j[1,3]
   + i_k_sq[1,3] = -2.010338082324073
 R724: 0.3711330012527547 i_k_r[2,3] + 0.6414940018256488 i_k_j[2,3]
   + i_k_sq[2,3] = -0.1373135647492907
 R725: 0.4693435069467498 i_k_r[2,4] - 0.2779285985604807 i_k_j[2,4]
   + i_k_sq[2,4] = -0.0743819083527166
 R726: 0.5877792421310128 i_k_r[3,5] - 0.2326495958793693 i_k_j[3,5]
   + i_k_sq[3,5] = -0.0999025679857354
 R727: 1.350289835524147 i_k_r[4,5] + 0.9164400597147919 i_k_j[4,5]
   + i_k_sq[4,5] = -0.6657862557424696
 R728: 1.899220655933965 i_k_r[2,1] - 0.0577318709423231 i_k_j[2,1]
   + i_k_sq[2,1] = -0.9025930172121859
 R729: 2.518897144037446 i_k_r[3,1] + 1.302501250308916 i_k_j[3,1]
   + i_k_sq[3,1] = -2.010338082324073
 R730: - 0.3711330012527547 i_k_r[3,2] - 0.6414940018256488 i_k_j[3,2]
   + i_k_sq[3,2] = -0.1373135647492907
 R731: - 0.1561143162152665 i_k_r[4,2] - 0.5677375044041995 i_k_j[4,2]
   + i_k_sq[4,2] = -0.0866743884086171
 R732: - 0.2141776154899631 i_k_r[5,3] - 0.6034806097540704 i_k_j[5,3]
   + i_k_sq[5,3] = -0.1025152243315278
 R733: - 1.350289835524147 i_k_r[5,4] - 0.9164400597147919 i_k_j[5,4]
   + i_k_sq[5,4] = -0.6657862557424696
 R734: v_n_r[1] <= 0.9618143398921968
 R735: v_n_r[2] <= 0.921231992581113
 R736: v_n_r[3] <= 0.9053544175428053
 R737: v_n_r[4] <= 0.9580260153064268
 R738: v_n_r[5] <= 0.9527127073864117
 R739: v_n_j[1] <= 0.3331493446359068
 R740: v_n_j[2] <= 0.2488390525377249
 R741: v_n_j[3] <= 0.2879923276579966
 R742: v_n_j[4] <= 0.4472258170538145
 R743: v_n_j[5] <= 0.5422335106214655
 R744: - v_n_r[1] <= -0.9618143385928453
 R745: - v_n_r[2] <= -0.9212319912817615
 R746: - v_n_r[3] <= -0.9053544162434538
 R747: - v_n_r[4] <= -0.9580260140070753
 R748: - v_n_r[5] <= -0.9527127060870602
 R749: - v_n_j[1] <= -0.3331493433365552
 R750: - v_n_j[2] <= -0.2488390512383733
 R751: - v_n_j[3] <= -0.287992326358645
 R752: - v_n_j[4] <= -0.4472258157544629
 R753: - v_n_j[5] <= -0.542233509322114
Bounds
 p_n[1] free
 p_n[2] free
 p_n[3] free
 p_n[4] free
 p_n[5] free
 q_n[1] free
 q_n[2] free
 q_n[3] free
 q_n[4] free
 q_n[5] free
 v_n_r[1] free
 v_n_r[2] free
 v_n_r[3] free
 v_n_r[4] free
 v_n_r[5] free
 v_n_j[1] free
 v_n_j[2] free
 v_n_j[3] free
 v_n_j[4] free
 v_n_j[5] free
 v_n_sq[1] free
 v_n_sq[2] free
 v_n_sq[3] free
 v_n_sq[4] free
 v_n_sq[5] free
 i_n_r[1] free
 i_n_r[2] free
 i_n_r[3] free
 i_n_r[4] free
 i_n_r[5] free
 i_n_j[1] free
 i_n_j[2] free
 i_n_j[3] free
 i_n_j[4] free
 i_n_j[5] free
 i_k_r[1,2] free
 i_k_r[1,3] free
 i_k_r[2,3] free
 i_k_r[2,4] free
 i_k_r[3,5] free
 i_k_r[4,5] free
 i_k_r[2,1] free
 i_k_r[3,1] free
 i_k_r[3,2] free
 i_k_r[4,2] free
 i_k_r[5,3] free
 i_k_r[5,4] free
 i_k_j[1,2] free
 i_k_j[1,3] free
 i_k_j[2,3] free
 i_k_j[2,4] free
 i_k_j[3,5] free
 i_k_j[4,5] free
 i_k_j[2,1] free
 i_k_j[3,1] free
 i_k_j[3,2] free
 i_k_j[4,2] free
 i_k_j[5,3] free
 i_k_j[5,4] free
 i_k_sq[1,2] free
 i_k_sq[1,3] free
 i_k_sq[2,3] free
 i_k_sq[2,4] free
 i_k_sq[3,5] free
 i_k_sq[4,5] free
 i_k_sq[2,1] free
 i_k_sq[3,1] free
 i_k_sq[3,2] free
 i_k_sq[4,2] free
 i_k_sq[5,3] free
 i_k_sq[5,4] free
End
